m = 5; % number of couriers
n = 6; % number of packages

l = [4, 4, 12, 8, 10]; % maximum carriable weight per courier
s = [5, 3, 5, 4, 4, 3]; % weight of each package

D = % distance matrix 
	 [| 8, 7, 8, 5, 7, 5, 2
	 | 7, 8, 3, 4, 2, 8, 8
	 | 8, 3, 2, 3, 4, 4, 7
	 | 5, 4, 3, 4, 3, 7, 5
	 | 7, 2, 4, 3, 3, 4, 5
	 | 5, 8, 4, 7, 4, 2, 7
	 | 6, 3, 8, 4, 5, 3, 6
	 |];